proyfinal/src/viki/013/andrea/andrea-localstore/experimentInOfficeAgust.take6/worker_4/192c9093-ba94-4b07-bfa5-7c596439a80c.als.cnf.out
Reading from standard input... Use '--help' for help.
============================[ Problem Statistics ]=============================
|                                                                             |
|  Number of variables:         87638                                         |
|  Number of clauses:          161767                                         |
|  Parse time:                   0.03 s                                       |
|                                                                             |
============================[ Search Statistics ]==============================
| Conflicts |          ORIGINAL         |          LEARNT          | Progress |
|           |    Vars  Clauses Literals |    Limit  Clauses Lit/Cl |          |
===============================================================================
|       100 |   63761   110253   275292 |    40426      100     12 | 27.245 % |
|       250 |   63761   110253   275292 |    44468      250     33 | 27.245 % |
|       475 |   63761   110253   275292 |    48915      475     66 | 27.245 % |
|       812 |   63760   110209   275202 |    53807      811     68 | 27.246 % |
|      1318 |   63728   110077   274893 |    59187     1299     73 | 27.283 % |
|      2077 |   57271   109837   274326 |    65106     2050     97 | 34.650 % |
|      3216 |   57084    89336   223887 |    71617     3135     87 | 34.864 % |
|      4924 |   56973    89060   223217 |    78779     4826     75 | 34.991 % |
|      7486 |   56886    88563   221943 |    86656     7318     72 | 35.090 % |
|     11330 |   56696    87840   220212 |    95322    11137     75 | 35.307 % |
===============================================================================
restarts              : 60
conflicts             : 13389          (7621 /sec)
decisions             : 62907          (0.00 % random) (35808 /sec)
propagations          : 20519332       (11680081 /sec)
conflict literals     : 952311         (42.03 % deleted)
Memory used           : 30.57 MB
CPU time              : 1.75678 s

INDETERMINATE
